120
150
31
31
89
42
66
83
79
49
28
36
39
45
71
79
93
51
53
97
55
45
45
72
39
39
87
27
45
21
42
42
24
93
31
72
23
56
53
41
23
68
59
51
98
68
68
31
68
53
97
39
31
80
97
45
45
31
76
72
51
98
31
36
37
88
45
45
62
56
93
45
37
68
72
55
23
89
51
83
66
33
41
77
39
34
68
80
38
51
68
33
53
97
44
48
58
68
80
56
93
66
88
61
23
89
38
87
35
88
42
49
100
53
97
88
88
56
51
98
51
99
